p cnf 14 64
5 -10 11 0
6 -8 10 0
4 6 -8 0
-6 8 9 0
1 -9 10 0
-1 9 -13 0
5 9 11 0
4 7 -8 0
2 4 -6 0
-3 -7 10 0
3 5 -9 0
-5 8 14 0
6 8 10 0
-5 -11 14 0
-3 10 -12 0
5 7 11 0
4 -8 -12 0
1 2 5 0
1 5 9 0
2 -11 -12 0
2 -3 14 0
-2 -7 10 0
-4 -6 -10 0
-1 -7 8 0
-8 -10 14 0
-5 -12 13 0
-4 8 10 0
5 -8 -11 0
3 6 9 0
1 7 11 0
-1 9 -12 0
-6 11 -12 0
-11 13 14 0
11 12 -13 0
8 12 13 0
-5 12 -14 0
10 -12 -13 0
-3 -11 -14 0
-1 10 14 0
-1 -6 -13 0
-3 -8 -14 0
7 10 -12 0
-1 6 9 0
1 -2 7 0
2 -6 11 0
-1 -12 -14 0
2 -7 10 0
-5 -8 -10 0
8 9 -13 0
-2 5 -11 0
5 9 10 0
-1 -2 -9 0
-1 3 11 0
7 -12 -14 0
-3 -5 12 0
1 5 -11 0
-6 7 -8 0
-7 8 14 0
3 -7 11 0
-2 4 -5 0
3 -4 -7 0
-1 -2 3 0
2 -12 13 0
-1 3 14 0
